Solving original (integer) problem with strategy gdp.hull_exact...
--- Job model.gms Start 02/14/26 21:43:07 52.2.0 d8e408be LEX-LEG x86 64bit/Linux
--- Applying:
    /package/gams/52.2/gmsprmun.txt
--- GAMS Parameters defined
    Input /local/scratch/a/sgusev/repos/k_means/data/gams_gurobi_gdp.hull_exact/no_mode/2026-02-14_21-43-06/original/model.gms
    Output /local/scratch/a/sgusev/repos/k_means/data/gams_gurobi_gdp.hull_exact/no_mode/2026-02-14_21-43-06/original/output.lst
    ScrDir /local/scratch/a/sgusev/repos/k_means/data/gams_gurobi_gdp.hull_exact/no_mode/2026-02-14_21-43-06/original/225a/
    SysDir /package/gams/52.2/
    CurDir /local/scratch/a/sgusev/repos/k_means/data/gams_gurobi_gdp.hull_exact/no_mode/2026-02-14_21-43-06/original/
    LogOption 3
    AppendLog 1
Licensee: David Bernal / SECQUOIA Research Group         G251008+0003Ac-GEN
          Purdue University, Davidson School of Chemical EngineeringDCE4838
          225a/gamslice.dat
          5a82958a-fbca-4a23
          node:66820903 mem:995 cores:48 ipport:60117 v:2                  
          Evaluation license: Not for commercial or production use
          The time-limited license stops working on : Jun 30, 2027
System information: 48 physical cores and 995 Gb physical memory detected
GAMS 52.2.0   Copyright (C) 1987-2025 GAMS Development. All rights reserved
--- Starting compilation
--- model.gms(4345) 2 Mb
--- $echo File /local/scratch/a/sgusev/repos/k_means/data/gams_gurobi_gdp.hull_exact/no_mode/2026-02-14_21-43-06/original/gurobi.opt
--- model.gms(6344) 2 Mb
--- Starting execution: elapsed 0:00:00.022
--- model.gms(4354) 3 Mb
--- Generating MINLP model GAMS_MODEL
--- model.gms(4358) 6 Mb
---   1,324 rows  609 columns  3,199 non-zeroes
---   2,016 nl-code  336 nl-non-zeroes
---   48 discrete-columns
--- Range statistics (absolute non-zero finite values)
--- RHS       [min, max] : [ 1.000E+00, 1.000E+00] - Zero values observed as well
--- Bound     [min, max] : [ 1.000E+00, 1.200E+02] - Zero values observed as well
--- Matrix    [min, max] : [ 1.000E+00, 1.200E+02] - Zero values observed as well
--- model.gms(4358) 4 Mb
--- Executing GUROBI (Solvelink=5): elapsed 0:00:00.029
Reading parameter(s) from "/local/scratch/a/sgusev/repos/k_means/data/gams_gurobi_gdp.hull_exact/no_mode/2026-02-14_21-43-06/original/gurobi.opt"
>>  NonConvex 2
>>  Threads 1
>>  MIPGap 1e-06
>>  MIPGapAbs 1e-10
>>  FeasibilityTol 1e-06
>>  OptimalityTol 1e-06
>>  IntFeasTol 1e-05
Finished reading from "/local/scratch/a/sgusev/repos/k_means/data/gams_gurobi_gdp.hull_exact/no_mode/2026-02-14_21-43-06/original/gurobi.opt"

... GRB_LICENSE_FILE = /local/scratch/a/sgusev/gurobi.lic

    Gurobi           52.2.0 d8e408be Dec 8, 2025           LEG x86 64bit/Linux    

... GAMS/Gurobi Link license.
... GMO Q Extraction (ThreePass): 0.00s

    Gurobi Optimizer version 13.0.0 build v13.0.0rc1 (linux64 - "Oracle Linux Server 9.7")
    
    CPU model: AMD EPYC 7643 48-Core Processor, instruction set [SSE2|AVX|AVX2]
    Thread count: 48 physical cores, 96 logical processors, using up to 1 threads
    
    Non-default parameters:
    TimeLimit  300
    MIPGap  1e-06
    LogToConsole  0
    NonConvex  2
    Threads  1
    
    Optimize a model with 1275 rows, 608 columns and 2850 nonzeros (Min)
    Model fingerprint: 0x57ce6962
    Model has 12 linear objective coefficients
    Model has 48 quadratic constraints
    Variable types: 560 continuous, 48 integer (0 binary)
    Coefficient statistics:
      Matrix range     [1e+00, 1e+02]
      QMatrix range    [3e-02, 3e+00]
      Objective range  [1e+00, 1e+00]
      Bounds range     [1e+00, 1e+02]
      RHS range        [1e+00, 1e+00]
    Presolve removed 240 rows and 252 columns
    Presolve time: 0.01s
    Presolved: 1511 rows, 884 columns, 4178 nonzeros
    Presolved model has 240 quadratic constraint(s)
    Variable types: 836 continuous, 48 integer (48 binary)
    
    Root relaxation: objective 0.000000e+00, 380 iterations, 0.00 seconds (0.00 work units)
    
        Nodes    |    Current Node    |     Objective Bounds      |     Work
     Expl Unexpl |  Obj  Depth IntInf | Incumbent    BestBd   Gap | It/Node Time
    
    H    0     0                      13.8672506    0.00000   100%     -    0s
    *    0     0               0      13.8672506    0.00000   100%     -    0s
         0     0    0.00000    0   14   13.86725    0.00000   100%     -    0s
         0     0    0.00000    0   19   13.86725    0.00000   100%     -    0s
    H    0     0                      12.7070212    0.00000   100%     -    0s
         0     0    0.00000    0   20   12.70702    0.00000   100%     -    0s
         0     0    0.00000    0   25   12.70702    0.00000   100%     -    0s
         0     0    0.00000    0   10   12.70702    0.00000   100%     -    0s
         0     0    0.00000    0   12   12.70702    0.00000   100%     -    0s
         0     0    0.00000    0   22   12.70702    0.00000   100%     -    0s
         0     0    0.00000    0   18   12.70702    0.00000   100%     -    0s
         0     0    0.00000    0   16   12.70702    0.00000   100%     -    0s
         0     0    0.00000    0   16   12.70702    0.00000   100%     -    0s
         0     0    0.00000    0   18   12.70702    0.00000   100%     -    0s
         0     0    0.00000    0   15   12.70702    0.00000   100%     -    0s
         0     0    0.00000    0   17   12.70702    0.00000   100%     -    0s
         0     0    0.00000    0   10   12.70702    0.00000   100%     -    0s
         0     0    0.00000    0   19   12.70702    0.00000   100%     -    0s
         0     0    0.00000    0   18   12.70702    0.00000   100%     -    0s
         0     0    0.00000    0   18   12.70702    0.00000   100%     -    0s
         0     0    0.00000    0   17   12.70702    0.00000   100%     -    0s
         0     0    0.00000    0   20   12.70702    0.00000   100%     -    0s
         0     0    0.00000    0   17   12.70702    0.00000   100%     -    0s
         0     0    0.00000    0   21   12.70702    0.00000   100%     -    0s
         0     0    0.00000    0   18   12.70702    0.00000   100%     -    0s
         0     0    0.00000    0   21   12.70702    0.00000   100%     -    0s
         0     0    0.00000    0   10   12.70702    0.00000   100%     -    0s
         0     0    0.00000    0   21   12.70702    0.00000   100%     -    0s
         0     0    0.00000    0   18   12.70702    0.00000   100%     -    0s
         0     0    0.00000    0   18   12.70702    0.00000   100%     -    0s
         0     0    0.00000    0   14   12.70702    0.00000   100%     -    0s
         0     0    0.00000    0   16   12.70702    0.00000   100%     -    0s
         0     0    0.00000    0   16   12.70702    0.00000   100%     -    0s
         0     0    0.00000    0   18   12.70702    0.00000   100%     -    0s
         0     0    0.00000    0   16   12.70702    0.00000   100%     -    0s
         0     0    0.00000    0   16   12.70702    0.00000   100%     -    0s
         0     0    0.00000    0   14   12.70702    0.00000   100%     -    0s
         0     0    0.00000    0   15   12.70702    0.00000   100%     -    0s
         0     0    0.00000    0   15   12.70702    0.00000   100%     -    0s
         0     0    0.00000    0   20   12.70702    0.00000   100%     -    0s
         0     0    0.00000    0   14   12.70702    0.00000   100%     -    0s
         0     0    0.00000    0   20   12.70702    0.00000   100%     -    0s
         0     0    0.00000    0   18   12.70702    0.00000   100%     -    0s
         0     0    0.00000    0   23   12.70702    0.00000   100%     -    0s
         0     0    0.00000    0    7   12.70702    0.00000   100%     -    0s
         0     0    0.00000    0   16   12.70702    0.00000   100%     -    0s
         0     0    0.00000    0   16   12.70702    0.00000   100%     -    0s
         0     0    0.00000    0   14   12.70702    0.00000   100%     -    0s
         0     0    0.00000    0   14   12.70702    0.00000   100%     -    0s
         0     0    0.00000    0   16   12.70702    0.00000   100%     -    0s
         0     0    0.00000    0   16   12.70702    0.00000   100%     -    0s
         0     0    0.00000    0   16   12.70702    0.00000   100%     -    0s
         0     0    0.00000    0   16   12.70702    0.00000   100%     -    0s
         0     0    0.00000    0   16   12.70702    0.00000   100%     -    0s
         0     0    0.00000    0   16   12.70702    0.00000   100%     -    0s
         0     0    0.00000    0   16   12.70702    0.00000   100%     -    0s
         0     0    0.00000    0   14   12.70702    0.00000   100%     -    0s
         0     0    0.00000    0   20   12.70702    0.00000   100%     -    0s
         0     0    0.00000    0   17   12.70702    0.00000   100%     -    1s
         0     0    0.00000    0   21   12.70702    0.00000   100%     -    1s
         0     0    0.00000    0   21   12.70702    0.00000   100%     -    1s
         0     0    0.00000    0   23   12.70702    0.00000   100%     -    1s
         0     0    0.00000    0   18   12.70702    0.00000   100%     -    1s
         0     0    0.00000    0   21   12.70702    0.00000   100%     -    1s
         0     0    0.00000    0   13   12.70702    0.00000   100%     -    1s
         0     0    0.00000    0   19   12.70702    0.00000   100%     -    1s
         0     0    0.00000    0   16   12.70702    0.00000   100%     -    1s
         0     0    0.00000    0   18   12.70702    0.00000   100%     -    1s
         0     0    0.00000    0   18   12.70702    0.00000   100%     -    1s
         0     0    0.00000    0   20   12.70702    0.00000   100%     -    1s
         0     0    0.00000    0   11   12.70702    0.00000   100%     -    1s
         0     0    0.00000    0   18   12.70702    0.00000   100%     -    1s
         0     0    0.00000    0   16   12.70702    0.00000   100%     -    1s
         0     0    0.00000    0   15   12.70702    0.00000   100%     -    1s
         0     0    0.00000    0   14   12.70702    0.00000   100%     -    1s
         0     0    0.00000    0   14   12.70702    0.00000   100%     -    1s
         0     0    0.00000    0   14   12.70702    0.00000   100%     -    1s
         0     0    0.00000    0   18   12.70702    0.00000   100%     -    1s
         0     0    0.00000    0   14   12.70702    0.00000   100%     -    1s
         0     0    0.00000    0   19   12.70702    0.00000   100%     -    1s
         0     0    0.00000    0   19   12.70702    0.00000   100%     -    1s
         0     0    0.00000    0   21   12.70702    0.00000   100%     -    1s
         0     0    0.00000    0   14   12.70702    0.00000   100%     -    1s
         0     0    0.00000    0   16   12.70702    0.00000   100%     -    1s
         0     0    0.00000    0   16   12.70702    0.00000   100%     -    1s
         0     0    0.00000    0   16   12.70702    0.00000   100%     -    1s
         0     0    0.00000    0   12   12.70702    0.00000   100%     -    1s
         0     0    0.00000    0   20   12.70702    0.00000   100%     -    1s
         0     0    0.00000    0   20   12.70702    0.00000   100%     -    1s
         0     0    0.00000    0   16   12.70702    0.00000   100%     -    1s
         0     0    0.00000    0   16   12.70702    0.00000   100%     -    1s
         0     0    0.00000    0   16   12.70702    0.00000   100%     -    1s
         0     0    0.00000    0   16   12.70702    0.00000   100%     -    1s
         0     0    0.00000    0   16   12.70702    0.00000   100%     -    1s
         0     0    0.00000    0   16   12.70702    0.00000   100%     -    1s
         0     0    0.00000    0   16   12.70702    0.00000   100%     -    1s
         0     0    0.00000    0   16   12.70702    0.00000   100%     -    1s
         0     0    0.00000    0   18   12.70702    0.00000   100%     -    1s
         0     0    0.00000    0   18   12.70702    0.00000   100%     -    1s
         0     0    0.00000    0   16   12.70702    0.00000   100%     -    1s
         0     0    0.00000    0   16   12.70702    0.00000   100%     -    1s
         0     0    0.00000    0   16   12.70702    0.00000   100%     -    1s
         0     0    0.00000    0   16   12.70702    0.00000   100%     -    1s
         0     0    0.00000    0   18   12.70702    0.00000   100%     -    1s
         0     0    0.00000    0   18   12.70702    0.00000   100%     -    1s
         0     0    0.00000    0   18   12.70702    0.00000   100%     -    1s
         0     0    0.00000    0   12   12.70702    0.00000   100%     -    1s
         0     0    0.00000    0   18   12.70702    0.00000   100%     -    1s
         0     0    0.00000    0   18   12.70702    0.00000   100%     -    1s
         0     0    0.00000    0   16   12.70702    0.00000   100%     -    1s
         0     0    0.00000    0   16   12.70702    0.00000   100%     -    1s
         0     0    0.00000    0   20   12.70702    0.00000   100%     -    1s
         0     0    0.00000    0   16   12.70702    0.00000   100%     -    1s
         0     0    0.00000    0   19   12.70702    0.00000   100%     -    1s
         0     0    0.00000    0   19   12.70702    0.00000   100%     -    1s
         0     0    0.00000    0   17   12.70702    0.00000   100%     -    1s
         0     0    0.00000    0   17   12.70702    0.00000   100%     -    1s
         0     0    0.00000    0   19   12.70702    0.00000   100%     -    1s
         0     0    0.00000    0   15   12.70702    0.00000   100%     -    2s
         0     0    0.00000    0   16   12.70702    0.00000   100%     -    2s
         0     0    0.00000    0   16   12.70702    0.00000   100%     -    2s
         0     0    0.00000    0   16   12.70702    0.00000   100%     -    2s
         0     0    0.00000    0   16   12.70702    0.00000   100%     -    2s
         0     0    0.00000    0   16   12.70702    0.00000   100%     -    2s
         0     0    0.00000    0   16   12.70702    0.00000   100%     -    2s
         0     0    0.00000    0   16   12.70702    0.00000   100%     -    2s
         0     0    0.00000    0   16   12.70702    0.00000   100%     -    2s
         0     0    0.00000    0   19   12.70702    0.00000   100%     -    2s
         0     0    0.00000    0   16   12.70702    0.00000   100%     -    2s
         0     0    0.00000    0   18   12.70702    0.00000   100%     -    2s
         0     0    0.00000    0   18   12.70702    0.00000   100%     -    2s
         0     0    0.00000    0   21   12.70702    0.00000   100%     -    2s
         0     0    0.00000    0   16   12.70702    0.00000   100%     -    2s
         0     0    0.00000    0   22   12.70702    0.00000   100%     -    2s
         0     0    0.00000    0   14   12.70702    0.00000   100%     -    2s
         0     0    0.00000    0   16   12.70702    0.00000   100%     -    2s
         0     0    0.00000    0   16   12.70702    0.00000   100%     -    2s
         0     0    0.00000    0   18   12.70702    0.00000   100%     -    2s
         0     0    0.00000    0   18   12.70702    0.00000   100%     -    2s
         0     0    0.00000    0   18   12.70702    0.00000   100%     -    2s
         0     0    0.00000    0   18   12.70702    0.00000   100%     -    2s
         0     0    0.00000    0   18   12.70702    0.00000   100%     -    2s
         0     0    0.00000    0   18   12.70702    0.00000   100%     -    2s
         0     0    0.00000    0   16   12.70702    0.00000   100%     -    2s
         0     0    0.00000    0   16   12.70702    0.00000   100%     -    2s
         0     0    0.00000    0   19   12.70702    0.00000   100%     -    2s
         0     0    0.00000    0   14   12.70702    0.00000   100%     -    2s
         0     0    0.00000    0   18   12.70702    0.00000   100%     -    2s
         0     0    0.00000    0   18   12.70702    0.00000   100%     -    2s
         0     0    0.00000    0   18   12.70702    0.00000   100%     -    2s
         0     0    0.00000    0   10   12.70702    0.00000   100%     -    2s
         0     0    0.00000    0   12   12.70702    0.00000   100%     -    2s
         0     0    0.00000    0   12   12.70702    0.00000   100%     -    2s
         0     0    0.00000    0   12   12.70702    0.00000   100%     -    2s
         0     0    0.00000    0   12   12.70702    0.00000   100%     -    2s
         0     0    0.00000    0   18   12.70702    0.00000   100%     -    2s
         0     0    0.00000    0   15   12.70702    0.00000   100%     -    2s
         0     0    0.00000    0   18   12.70702    0.00000   100%     -    2s
         0     0    0.00000    0   16   12.70702    0.00000   100%     -    2s
         0     0    0.00000    0   20   12.70702    0.00000   100%     -    2s
         0     0    0.00000    0   18   12.70702    0.00000   100%     -    2s
         0     0    0.00000    0   18   12.70702    0.00000   100%     -    2s
         0     0    0.00000    0   16   12.70702    0.00000   100%     -    2s
         0     0    0.00000    0   18   12.70702    0.00000   100%     -    2s
         0     0    0.00000    0   14   12.70702    0.00000   100%     -    2s
         0     0    0.00000    0   16   12.70702    0.00000   100%     -    2s
         0     0    0.00000    0   16   12.70702    0.00000   100%     -    2s
         0     0    0.00000    0   19   12.70702    0.00000   100%     -    2s
         0     0    0.00000    0   19   12.70702    0.00000   100%     -    2s
         0     0    0.00000    0   18   12.70702    0.00000   100%     -    2s
         0     0    0.00000    0   18   12.70702    0.00000   100%     -    2s
         0     0    0.00000    0   20   12.70702    0.00000   100%     -    2s
         0     0    0.00000    0   15   12.70702    0.00000   100%     -    2s
         0     0    0.00000    0   18   12.70702    0.00000   100%     -    2s
         0     0    0.00000    0    7   12.70702    0.00000   100%     -    3s
         0     0    0.00000    0   20   12.70702    0.00000   100%     -    3s
         0     0    0.00000    0   18   12.70702    0.00000   100%     -    3s
         0     0    0.00000    0   19   12.70702    0.00000   100%     -    3s
         0     0    0.00000    0   19   12.70702    0.00000   100%     -    3s
         0     0    0.00000    0   21   12.70702    0.00000   100%     -    3s
         0     0    0.00000    0   18   12.70702    0.00000   100%     -    3s
         0     0    0.00000    0   21   12.70702    0.00000   100%     -    3s
         0     0    0.00000    0   18   12.70702    0.00000   100%     -    3s
         0     0    0.00000    0   21   12.70702    0.00000   100%     -    3s
         0     0    0.00000    0   14   12.70702    0.00000   100%     -    3s
         0     0    0.00000    0   14   12.70702    0.00000   100%     -    3s
         0     0    0.00000    0   14   12.70702    0.00000   100%     -    3s
         0     0    0.00000    0   16   12.70702    0.00000   100%     -    3s
         0     0    0.00000    0   16   12.70702    0.00000   100%     -    3s
         0     0    0.00000    0   18   12.70702    0.00000   100%     -    3s
         0     0    0.00000    0   13   12.70702    0.00000   100%     -    3s
         0     0    0.00000    0   14   12.70702    0.00000   100%     -    3s
         0     0    0.00000    0   14   12.70702    0.00000   100%     -    3s
         0     0    0.00000    0   19   12.70702    0.00000   100%     -    3s
         0     0    0.00000    0   19   12.70702    0.00000   100%     -    3s
         0     0    0.00000    0   21   12.70702    0.00000   100%     -    3s
         0     0    0.00000    0   13   12.70702    0.00000   100%     -    3s
         0     0    0.00000    0   12   12.70702    0.00000   100%     -    3s
         0     0    0.00000    0   12   12.70702    0.00000   100%     -    3s
         0     0    0.00000    0   16   12.70702    0.00000   100%     -    3s
         0     0    0.00000    0   16   12.70702    0.00000   100%     -    3s
         0     0    0.00000    0   16   12.70702    0.00000   100%     -    3s
         0     0    0.00000    0   14   12.70702    0.00000   100%     -    3s
         0     0    0.00000    0   13   12.70702    0.00000   100%     -    3s
         0     0    0.00000    0   13   12.70702    0.00000   100%     -    3s
    H    0     0                      10.2463483    0.00000   100%     -    3s
         0     2    0.00000    0   13   10.24635    0.00000   100%     -    3s
    H   63    53                      10.2463480    0.00000   100%   186    4s
    H   92    82                      10.2052057    0.00000   100%   163    4s
    H  121   103                      10.2052053    0.00000   100%   165    4s
    H  231   179                      10.2052052    0.00000   100%   154    4s
       253   193    1.04644    5   20   10.20521    0.00000   100%   149    5s
    H  278   216                      10.0034625    0.00000   100%   150    5s
    H  334   231                      10.0034625    0.00000   100%   196    8s
    H  353   232                      10.0034625    0.00000   100%   208    9s
       387   240     cutoff   41        10.00346    0.00000   100%   204   10s
    H  399   235                      10.0034625    0.00000   100%   212   10s
    H  417   235                       9.5568750    0.00000   100%   214   10s
    H  419   223                       8.8503093    0.00000   100%   213   10s
    H  423   215                       8.8373151    0.00000   100%   214   10s
    H  423   205                       8.8335228    0.00000   100%   214   10s
    H  427   192                       8.5926037    0.00000   100%   212   10s
    H  427   183                       8.5926035    0.00000   100%   212   10s
    H  431   172                       8.4624620    0.00000   100%   210   11s
    H  436   168                       8.4361460    0.00000   100%   215   11s
    H  443   166                       8.4361456    0.00000   100%   219   11s
    H  451   164                       8.3284203    0.00000   100%   220   11s
    H  452   158                       8.3284197    0.00000   100%   221   11s
    H  453   153                       8.2767913    0.00000   100%   221   11s
    H  500   162                       8.2767903    0.00000   100%   222   12s
    H  503   159                       8.2767902    0.00000   100%   223   12s
    H  518   164                       8.2767902    0.00000   100%   221   12s
    H  519   160                       8.2767902    0.00000   100%   221   12s
    H  581   166                       8.2767900    0.00000   100%   228   13s
    H  627   202                       8.2561730    0.00000   100%   241   14s
    H  657   198                       8.2561727    0.00000   100%   235   14s
    H  657   198                       8.2561719    0.00000   100%   235   14s
       692   219    0.17793   26   32    8.25617    0.00000   100%   242   15s
    H 1116   490                       8.2561719    0.00000   100%   247   19s
      1126   502    3.56180   28   26    8.25617    0.00000   100%   249   20s
      1630   751    2.41607   24   22    8.25617    0.16219  98.0%   258   25s
      2471  1108    2.09639   21   30    8.25617    0.61791  92.5%   242   30s
    H 3281  1456                       8.1497751    1.10459  86.4%   231   34s
      3456  1509     cutoff   31         8.14978    1.23308  84.9%   225   35s
    H 3673  1548                       7.9358243    1.28046  83.9%   223   36s
      4349  1761    2.66597   29   27    7.93582    1.66855  79.0%   217   40s
      5273  2057    4.78534   24   23    7.93582    2.04883  74.2%   210   45s
      6261  2360    3.19196   25   26    7.93582    2.23651  71.8%   205   50s
      7280  2649    5.49971   24   19    7.93582    2.45702  69.0%   201   55s
    H 7748  2778                       7.9358243    2.52320  68.2%   201   57s
    H 7852  2810                       7.9358243    2.53739  68.0%   201   58s
      8193  2904    6.04190   28   22    7.93582    2.60357  67.2%   200   60s
      9299  3135     cutoff   30         7.93582    2.80270  64.7%   195   65s
     10369  3371    6.30272   28   20    7.93582    2.98077  62.4%   192   70s
     11510  3598     cutoff   31         7.93582    3.14452  60.4%   188   75s
     12650  3816     cutoff   34         7.93582    3.27484  58.7%   186   80s
     13862  3977    4.41704   25   24    7.93582    3.47747  56.2%   183   85s
     15042  4174    6.16759   27   20    7.93582    3.61652  54.4%   180   90s
     16121  4369    6.53839   27   22    7.93582    3.72350  53.1%   180   95s
     17338  4523    7.80836   28   18    7.93582    3.84738  51.5%   177  100s
     18544  4697     cutoff   36         7.93582    3.96242  50.1%   176  105s
     19827  4843    5.44323   26   21    7.93582    4.05494  48.9%   173  110s
     20943  4922    6.81547   25   20    7.93582    4.17094  47.4%   172  115s
    H21378  4835                       7.7825115    4.20275  46.0%   171  116s
    H21381  4832                       7.7825112    4.20275  46.0%   171  117s
     21651  4856    4.80382   26   25    7.78251    4.22484  45.7%   171  120s
    H22707  4915                       7.7825107    4.32063  44.5%   170  124s
     22798  4920    7.20036   32   13    7.78251    4.33019  44.4%   169  125s
     23974  4969    5.49213   23   22    7.78251    4.40974  43.3%   168  130s
    H25045  5033                       7.7825107    4.49328  42.3%   166  133s
     25330  5047    7.44136   30   19    7.78251    4.51450  42.0%   166  135s
     26731  5073     cutoff   31         7.78251    4.62013  40.6%   164  140s
    H27818  5096                       7.7825106    4.70716  39.5%   163  144s
     28034  5097     cutoff   27         7.78251    4.72157  39.3%   163  145s
     29395  5076     cutoff   31         7.78251    4.86338  37.5%   161  150s
    H30588  5043                       7.7825105    4.95664  36.3%   160  154s
    H30588  5043                       7.7825105    4.95664  36.3%   160  154s
     30800  5040    7.71671   28   15    7.78251    4.97971  36.0%   160  155s
     31782  5006    6.56634   26   20    7.78251    5.05611  35.0%   159  160s
     33119  4934    7.62959   33   14    7.78251    5.16267  33.7%   158  165s
    H33383  4905                       7.7825104    5.18846  33.3%   158  165s
     34615  4831    7.14176   27   19    7.78251    5.28444  32.1%   156  170s
    H36074  4631                       7.7007511    5.40848  29.8%   155  174s
     36110  4621     cutoff   24         7.70075    5.41518  29.7%   155  175s
    H37101  4508                       7.7007511    5.52371  28.3%   153  178s
     37742  4447    6.13227   29   22    7.70075    5.57661  27.6%   153  180s
     39320  4179    7.33726   30   15    7.70075    5.73863  25.5%   151  185s
     40952  3850    7.06516   28   18    7.70075    5.88646  23.6%   149  190s
     42659  3498    7.21784   28   20    7.70075    6.04828  21.5%   147  195s
     44316  3056    7.42561   33   17    7.70075    6.23577  19.0%   145  200s
     46113  2463    6.79026   31   13    7.70075    6.45724  16.1%   143  205s
     48027  1576     cutoff   29         7.70075    6.78024  12.0%   141  210s
     50215   327    7.41226   29   20    7.70075    7.41111  3.76%   138  215s
    
    Cutting planes:
      Gomory: 1
      Flow cover: 2
    
    Explored 50588 nodes (7042580 simplex iterations) in 215.61 seconds (244.44 work units)
    Thread count was 1 (of 96 available processors)
    
    Solution count 10: 7.70075 7.70075 7.78251 ... 10.2463
    
    Optimal solution found (tolerance 1.00e-06)
    Best objective 7.700751087072e+00, best bound 7.700751068688e+00, gap 0.0000%
    
    User-callback calls 50735, time in user-callback 0.00 sec

... Solving fixed model...

    Gurobi Optimizer version 13.0.0 build v13.0.0rc1 (linux64 - "Oracle Linux Server 9.7")
    
    CPU model: AMD EPYC 7643 48-Core Processor, instruction set [SSE2|AVX|AVX2]
    Thread count: 48 physical cores, 96 logical processors, using up to 1 threads
    
    Non-default parameters:
    TimeLimit  300
    MIPGap  1e-06
    LogToConsole  0
    NonConvex  2
    Threads  1
    
    Optimize a model with 1275 rows, 608 columns and 2850 nonzeros (Min)
    Model fingerprint: 0x0fbb9659
    Model has 12 linear objective coefficients
    Model has 48 quadratic constraints
    Coefficient statistics:
      Matrix range     [1e+00, 1e+02]
      QMatrix range    [3e-02, 3e+00]
      Objective range  [1e+00, 1e+00]
      Bounds range     [1e+00, 1e+02]
      RHS range        [1e+00, 1e+00]
    Presolve removed 1272 rows and 576 columns
    Presolve time: 0.00s
    Presolved: 84 rows, 96 columns, 211 nonzeros
    Presolved model has 12 second-order cone constraints
    Ordering time: 0.00s
    
    Barrier statistics:
     AA' NZ     : 8.310e+02
     Factor NZ  : 1.043e+03
     Factor Ops : 1.716e+04 (less than 1 second per iteration)
     Threads    : 1
    
                      Objective                Residual
    Iter       Primal          Dual         Primal    Dual     Compl     Time
       0   8.19762006e+02 -5.85169322e+02  1.44e+01 4.34e+00  1.86e+01     0s
       1   8.14101197e+01 -1.52996751e+02  1.59e-05 4.78e-06  1.59e+00     0s
       2   1.17735483e+01 -2.63123220e+01  3.15e-08 8.41e-07  2.59e-01     0s
       3   9.11992843e+00  1.15909351e+00  4.01e-11 8.01e-08  5.42e-02     0s
       4   7.90843297e+00  7.26110500e+00  7.55e-15 4.54e-09  4.40e-03     0s
       5   7.70399527e+00  7.69295325e+00  4.15e-14 5.44e-11  7.51e-05     0s
       6   7.70087561e+00  7.70053319e+00  1.24e-12 1.45e-12  2.33e-06     0s
       7   7.70075763e+00  7.70074280e+00  1.48e-10 1.70e-13  1.01e-07     0s
       8   7.70075108e+00  7.70075099e+00  2.86e-09 7.49e-12  6.44e-10     0s
    
    Barrier solved model in 8 iterations and 0.00 seconds (0.00 work units)
    Optimal objective 7.70075108e+00
    
    
    User-callback calls 0, time in user-callback 0.00 sec
    Warning: to get QCP duals, please set parameter QCPDual to 1

--- Reading solution for model GAMS_MODEL
***
*** Solver did not provide marginals for model GAMS_MODEL
***
--- Executing after solve: elapsed 0:03:35.673
--- model.gms(4361) 4 Mb
--- model.gms(6344) 6 Mb
--- Putfile results /local/scratch/a/sgusev/repos/k_means/data/gams_gurobi_gdp.hull_exact/no_mode/2026-02-14_21-43-06/original/results.dat
--- Putfile statresults /local/scratch/a/sgusev/repos/k_means/data/gams_gurobi_gdp.hull_exact/no_mode/2026-02-14_21-43-06/original/resultsstat.dat
*** Status: Normal completion
--- Job model.gms Stop 02/14/26 21:46:42 elapsed 0:03:35.676
Original problem solved. Time taken: 216.28295493125916 seconds
Original objective value: 7.7007510815092655
